10J3M/DAT/10J3MULA-19.dat
10 3
34.2766 1174.8853
3.8717 14.9901
31.9096 1018.2226
30.1833 911.0316
20.8975 436.7055
49.3879 2439.1647
9.256 85.6735
23.1554 536.1725
19.9172 396.6949
42.1898 1779.9792
2931.1733