10J3M/SOL/10J3MULA-19.sol
solution status: optimal solution found
objective value:                     88.3483333333333
x#1#1                                               1 	(obj:0)
x#2#1                                               1 	(obj:0)
x#3#2                                               1 	(obj:0)
x#4#1                               0.632295786416088 	(obj:0)
x#4#2                               0.367704213583912 	(obj:0)
x#5#3                                               1 	(obj:0)
x#6#1                               0.442603551137032 	(obj:0)
x#6#3                               0.557396448862968 	(obj:0)
x#7#1                                               1 	(obj:0)
x#8#3                                               1 	(obj:0)
x#9#2                               0.755022131902771 	(obj:0)
x#9#3                               0.244977868097229 	(obj:0)
x#10#2                              0.718237107972358 	(obj:0)
x#10#3                              0.281762892027642 	(obj:0)
z                                    88.3483333333333 	(obj:1)
